Cu  O 
 1.0000000000000000
     4.2878129999999999    0.0000000000000000    0.0000000000000000
     0.0000000000000000    4.2878129999999999    0.0000000000000000
     0.0000000000000000    0.0000000000000000    4.2878129999999999
 Cu  O  
   4   2
Cartesian
  1.0719532500000000  1.0719532500000000  3.2158597499999999
  3.2158597499999999  1.0719532500000000  1.0719532500000000
  1.0719532500000000  3.2158597499999999  1.0719532500000000
  3.2158597499999999  3.2158597499999999  3.2158597499999999
  2.1439064999999999  2.1439064999999999  2.1439064999999999
  0.0000000000000000  0.0000000000000000  0.0000000000000000
